WARNING: for repeatability, setting FPU to use double precision
============================[ Problem Statistics ]=============================
|                                                                             |
|  Number of variables:            50                                         |
|  Number of clauses:             218                                         |
|  Parse time:                   0.00 s                                       |
|                                                                             |
============================[ Search Statistics ]==============================
| Conflicts |          ORIGINAL         |          LEARNT          | Progress |
|           |    Vars  Clauses Literals |    Limit  Clauses Lit/Cl |          |
===============================================================================
===============================================================================
restarts              : 1
conflicts             : 59             (39784 /sec)
decisions             : 75             (0.00 % random) (50573 /sec)
propagations          : 901            (607552 /sec)
conflict literals     : 202            (23.77 % deleted)
Memory used           : 20.00 MB
CPU time              : 0.001483 s

UNSATISFIABLE
